p tdp 67 66
1 40
9 17
31 37
27 5
10 66
57 35
26 65
64 5
18 63
53 20
31 58
36 6
21 38
28 25
22 1
43 15
65 45
42 44
5 2
65 25
61 29
38 43
59 55
48 10
56 1
46 17
33 9
52 54
53 16
13 4
61 14
11 46
50 1
32 16
28 53
22 51
24 67
59 18
47 38
2 17
42 60
67 25
48 12
30 10
62 32
22 54
41 6
34 59
19 66
2 29
19 3
12 23
60 39
49 10
12 64
21 7
8 10
55 13
29 35
58 66
44 12
40 26
59 6
46 21
10 59
20 57
